Route #1: 57 94 64 105 69 17 31 40 63 29
Route #2: 96 82 72 34 11 99 74
Route #3: 13 2 83 77 67 85 54 21
Route #4: 104 1 53 87 60 51 100 45
Route #5: 5 101 103 28 93 97 43 76
Route #6: 49 48 8 36 91 88 58 14
Route #7: 7 75 84 9 12 15 44
Route #8: 52 92 102 24 90 26 62
Route #9: 22 33
Route #10: 78 19 27 37 79 71 46 66
Route #11: 86 18 41 10 16 20 56
Route #12: 35 73 32 3 23 42 30 89 59
Route #13: 39 50 81 6 70 4 98 55
Route #14: 68 95 38 65 80 61 47 25
Cost 26386
